5 2
6 2
7 2
8 1
9 3
10 5
11 4
12 5
13 3
14 1
15 5
16 2
17 5
5 2
6 3
7 5
8 3
9 5
10 2
11 6
12 5
13 5
14 5
15 6
16 5
17 6
5 7
6 6
7 6
8 4
9 6
10 5
11 6
12 4
13 7
14 7
15 6
16 7
17 7
5 8
6 6
7 5
8 4
9 5
10 6
11 7
12 6
13 5
14 8
15 6
16 8
17 6
5 9
6 8
7 5
8 9
9 8
10 5
11 5
12 7
13 6
14 8
15 7
16 8
17 8
5 10
6 7
7 10
8 10
9 9
10 7
11 10
12 10
13 7
14 9
15 10
16 9
17 10
5 7
6 9
7 10
8 11
9 10
10 7
11 8
12 7
13 9
14 10
15 10
16 10
17 8
5 12
6 8
7 12
8 8
9 10
10 8
11 11
12 11
13 12
14 11
15 10
16 10
17 9
5 11
6 11
7 12
8 13
9 11
10 9
11 10
12 10
13 11
14 9
15 10
16 9
17 12
5 10
6 11
7 12
8 14
9 11
10 14
11 13
12 11
13 14
14 10
15 13
16 14
17 11
5 13
6 13
7 14
8 15
9 12
10 13
11 11
12 14
13 13
14 12
15 13
16 12
17 12
5 13
6 15
7 14
8 12
9 16
10 14
11 14
12 15
13 14
14 15
15 14
16 13
17 14
5 13
6 16
7 13
8 14
9 13
10 15
11 13
12 15
13 13
14 16
15 14
16 14
17 15
5 18
6 18
7 15
8 15
9 16
10 15
11 16
12 14
13 17
14 17
15 14
16 14
17 14
5 18
6 16
7 18
8 18
9 19
10 19
11 17
12 15
